c description: Random 5-CNF over 15 variables and 15 clauses
c generator: CNFgen (0.9.0)
c copyright: (C) 2012-2020 Massimo Lauria <massimo.lauria@uniroma1.it>
c url: https://massimolauria.net/cnfgen
c
p cnf 15 15
3 6 7 9 15 0
-6 8 -9 10 15 0
4 6 7 -11 -15 0
1 -6 7 8 -9 0
4 5 6 11 -13 0
-3 5 -11 12 -14 0
-5 10 -11 12 14 0
-2 5 -8 -11 -14 0
2 -6 -9 -13 15 0
5 -8 -9 11 14 0
1 -2 5 8 -14 0
3 9 10 12 14 0
-8 -9 10 -12 -14 0
2 4 -9 -14 15 0
2 -6 -10 -12 13 0